
List of user-set options:

                                    Name   Value                used
                           compl_inf_tol = 1                     yes
                         constr_viol_tol = 1                     yes
                            dual_inf_tol = 1000                  yes
                           linear_solver = ma97                  yes
                              ma86_small = 1e-30                  no
                                  ma86_u = 0.0001                 no
                              ma97_order = best                  yes
                              ma97_small = 1e-30                 yes
                            ma97_switch1 = at_start              yes
                            ma97_switch2 = od_hd_reuse           yes
                                  ma97_u = 1e-06                 yes
                               ma97_umax = 0.5                   yes
                                max_iter = 1000                  yes
                    max_refinement_steps = 20                    yes
                    min_refinement_steps = 5                     yes
                                 mu_init = 1e-06                 yes
           mu_superlinear_decrease_power = 1.25                  yes
                   nlp_scaling_min_value = 1e-08                 yes
                        option_file_name = Preset_Case_424_pf.opt  yes
                             output_file = ./tmp/Preset_Case_424_pf.output  yes
                      print_user_options = yes                   yes
        required_infeasibility_reduction = 1                      no
                                     tol = 1e-08                 yes
                   warm_start_bound_frac = 1e-20                 yes
                   warm_start_bound_push = 1e-20                 yes
                   warm_start_init_point = yes                   yes
              warm_start_mult_bound_push = 1e-20                 yes
                warm_start_mult_init_max = 1e+40                 yes
             warm_start_slack_bound_frac = 1e-20                 yes
             warm_start_slack_bound_push = 1e-20                 yes

******************************************************************************
This program contains Ipopt, a library for large-scale nonlinear optimization.
 Ipopt is released as open source code under the Eclipse Public License (EPL).
         For more information visit http://projects.coin-or.org/Ipopt
******************************************************************************

This is Ipopt version 3.12.10, running with linear solver ma97.

Number of nonzeros in equality constraint Jacobian...:   123443
Number of nonzeros in inequality constraint Jacobian.:      213
Number of nonzeros in Lagrangian Hessian.............:    49069

Total number of variables............................:    31591
                     variables with only lower bounds:    12912
                variables with lower and upper bounds:    15130
                     variables with only upper bounds:        0
Total number of equality constraints.................:    31483
Total number of inequality constraints...............:       25
        inequality constraints with only lower bounds:        4
   inequality constraints with lower and upper bounds:        0
        inequality constraints with only upper bounds:       21

iter    objective    inf_pr   inf_du lg(mu)  ||d||  lg(rg) alpha_du alpha_pr  ls
   0 -4.9858427e+00 4.09e-03 1.02e+00  -6.0 0.00e+00    -  0.00e+00 0.00e+00   0
   1 -4.9921073e+00 9.03e+00 9.23e+01  -6.0 2.94e+05    -  1.15e-04 1.58e-03h  1
   2 -4.9920665e+00 9.03e+00 9.23e+01  -6.0 7.12e+02    -  1.07e-04 3.21e-05h  1
   3 -4.9860093e+00 9.01e+00 1.50e+02  -6.0 2.19e+04    -  1.04e-04 2.28e-03h  1
   4 -4.9853874e+00 9.01e+00 1.72e+02  -6.0 2.91e+03    -  2.41e-01 5.18e-04h  3
   5 -4.9851676e+00 9.01e+00 1.72e+02  -6.0 5.41e+03    -  9.06e-04 1.30e-04h  8
   6 -4.9850905e+00 9.01e+00 1.73e+02  -6.0 2.87e+03    -  4.03e-03 6.41e-05h 13
   7 -4.9850712e+00 9.01e+00 1.73e+02  -6.0 2.87e+03    -  9.34e-04 1.61e-05h 15
   8 -4.9773034e+00 8.95e+00 1.19e+02  -6.0 2.89e+03    -  6.47e-03 6.47e-03s 20
   9r-4.9773034e+00 8.95e+00 9.99e+02   1.0 0.00e+00    -  0.00e+00 0.00e+00R  1
iter    objective    inf_pr   inf_du lg(mu)  ||d||  lg(rg) alpha_du alpha_pr  ls
  10r-4.9810248e+00 8.95e+00 9.99e+02   1.0 1.92e+06    -  3.10e-07 5.85e-08f  1
  11 -5.0104439e+00 8.92e+00 1.27e+04  -6.0 1.46e+05    -  2.59e-04 3.09e-03h  1
  12 -5.0484645e+00 4.94e+01 1.34e+04  -6.0 2.60e+05    -  2.42e-06 1.01e-02h  1
  13 -5.0836755e+00 4.95e+01 1.53e+04  -6.0 1.10e+05    -  2.84e-04 1.10e-02h  1
  14 -5.0814500e+00 4.93e+01 2.30e+04  -6.0 1.69e+04    -  1.47e-02 1.84e-02h  2
  15 -5.1035099e+00 4.86e+01 4.63e+04  -6.0 2.30e+04    -  9.48e-03 1.28e-02h  1
  16 -5.1234560e+00 4.70e+01 9.77e+04  -6.0 1.69e+04    -  2.64e-02 3.54e-02h  1
  17 -5.1023762e+00 4.53e+01 8.19e+04  -6.0 6.01e+03    -  7.52e-02 3.60e-02h  1
  18 -5.0564033e+00 4.19e+01 5.61e+04  -6.0 4.42e+03    -  8.77e-02 7.51e-02h  1
  19 -5.0227321e+00 3.90e+01 4.04e+04  -6.0 2.88e+03    -  9.78e-03 6.86e-02h  2
iter    objective    inf_pr   inf_du lg(mu)  ||d||  lg(rg) alpha_du alpha_pr  ls
  20 -5.0156087e+00 3.82e+01 3.88e+04  -6.0 2.51e+03    -  9.69e-02 2.19e-02h  3
  21 -5.0155903e+00 3.80e+01 3.89e+04  -6.0 7.18e+03    -  6.16e-02 4.97e-03h  1
  22 -5.0105713e+00 3.72e+01 3.77e+04  -6.0 2.83e+03    -  8.82e-02 2.02e-02h  1
  23 -5.0105118e+00 3.72e+01 7.25e+04  -6.0 2.53e+03    -  6.52e-01 2.65e-04h  9
  24 -5.0104958e+00 3.72e+01 8.43e+04  -6.0 2.55e+03    -  3.87e-01 7.07e-05h 11
  25 -5.0104931e+00 3.72e+01 8.66e+04  -6.0 2.56e+03    -  3.32e-01 1.16e-05h 14
  26r-5.0104931e+00 3.72e+01 1.00e+03   1.3 0.00e+00    -  0.00e+00 3.42e-07R 20
  27r-5.0207269e+00 3.72e+01 1.01e+03   1.3 6.18e+05    -  1.71e-07 6.98e-08f  1
  28 -5.0207214e+00 3.72e+01 1.01e+02  -6.0 3.46e+02    -  7.48e-07 2.34e-05h  1
  29 -5.0204755e+00 3.72e+01 4.53e+02  -6.0 3.52e+02    -  7.36e-03 6.55e-04h  1
iter    objective    inf_pr   inf_du lg(mu)  ||d||  lg(rg) alpha_du alpha_pr  ls
  30 -5.0170205e+00 3.69e+01 2.26e+02  -6.0 3.31e+02    -  6.82e-04 7.32e-03h  1
  31 -5.0098831e+00 3.63e+01 9.68e+02  -6.0 3.31e+02    -  2.16e-03 1.59e-02h  2
  32 -5.0072065e+00 3.62e+01 2.22e+02  -6.0 3.05e+02    -  1.73e-02 2.96e-03h  4
  33 -5.0050675e+00 3.61e+01 2.25e+02  -6.0 3.04e+02    -  3.07e-03 2.37e-03h  6
  34 -5.0049895e+00 3.61e+01 1.25e+03  -6.0 3.03e+02    -  2.09e-02 8.63e-05h 11
  35 -4.9978954e+00 3.59e+01 1.24e+03  -6.0 2.97e+02    -  7.83e-03 7.83e-03s 20
  36 -4.9899794e+00 3.55e+01 1.23e+03  -6.0 2.95e+02    -  8.83e-03 8.83e-03s 20
  37r-4.9899794e+00 3.55e+01 1.00e+03   1.3 0.00e+00    -  0.00e+00 0.00e+00R  1
  38r-4.9887715e+00 3.55e+01 8.60e+04   1.3 8.11e+04    -  1.46e-07 1.95e-08f  1
  39r-5.0025547e+00 3.55e+01 8.61e+04   1.3 7.79e+04    -  8.73e-07 5.39e-07f  1
iter    objective    inf_pr   inf_du lg(mu)  ||d||  lg(rg) alpha_du alpha_pr  ls
  40 -5.0025443e+00 3.55e+01 1.01e+02  -6.0 2.85e+02    -  1.34e-05 2.67e-05h  1
  41 -5.0023014e+00 3.55e+01 1.20e+03  -6.0 3.42e+02    -  1.39e-02 4.20e-04h  1
  42 -4.9894273e+00 3.49e+01 1.11e+03  -6.0 3.11e+02    -  2.33e-03 1.70e-02h  1
  43 -4.9778860e+00 3.43e+01 1.09e+03  -6.0 3.05e+02    -  1.99e-02 1.61e-02h  1
  44 -4.9348311e+00 3.23e+01 2.42e+03  -6.0 2.98e+02    -  2.38e-02 6.06e-02h  1
  45 -4.8980162e+00 3.04e+01 1.03e+03  -6.0 2.80e+02    -  7.37e-02 5.79e-02h  1
  46 -4.8886782e+00 2.99e+01 9.74e+03  -6.0 2.62e+02    -  1.61e-01 1.49e-02h  1
  47 -4.7901545e+00 2.61e+01 1.10e+04  -6.0 2.51e+02    -  1.81e-01 1.29e-01h  1
  48 -4.7868078e+00 2.60e+01 1.10e+04  -6.0 2.14e+02    -  5.37e-03 4.28e-03h  1
  49 -4.7796490e+00 2.57e+01 1.06e+04  -6.0 2.13e+02    -  7.36e-04 9.21e-03h  1
iter    objective    inf_pr   inf_du lg(mu)  ||d||  lg(rg) alpha_du alpha_pr  ls
  50 -4.7716731e+00 2.54e+01 1.01e+04  -6.0 2.11e+02    -  6.72e-04 1.04e-02h  1
  51 -4.7634000e+00 2.52e+01 9.57e+03  -6.0 2.09e+02    -  1.16e-03 1.09e-02h  1
  52 -4.7547649e+00 2.49e+01 9.05e+03  -6.0 2.07e+02    -  1.51e-03 1.16e-02h  1
  53 -4.7456759e+00 2.46e+01 8.49e+03  -6.0 2.05e+02    -  1.79e-03 1.23e-02h  1
  54 -4.7360597e+00 2.42e+01 7.90e+03  -6.0 2.02e+02    -  2.07e-03 1.33e-02h  1
  55 -4.7258397e+00 2.39e+01 7.26e+03  -6.0 2.00e+02    -  2.38e-03 1.44e-02h  1
  56 -4.7149065e+00 2.35e+01 6.56e+03  -6.0 1.97e+02    -  2.75e-03 1.57e-02h  1
  57 -4.7030855e+00 2.31e+01 5.80e+03  -6.0 1.94e+02    -  3.20e-03 1.74e-02h  1
  58 -4.6900900e+00 2.27e+01 4.94e+03  -6.0 1.91e+02    -  3.77e-03 1.96e-02h  1
  59 -4.6754517e+00 2.21e+01 3.95e+03  -6.0 1.88e+02    -  4.54e-03 2.27e-02h  1
iter    objective    inf_pr   inf_du lg(mu)  ||d||  lg(rg) alpha_du alpha_pr  ls
  60 -4.6584411e+00 2.15e+01 3.61e+03  -6.0 1.84e+02    -  5.65e-03 2.73e-02h  1
  61 -4.6380637e+00 2.08e+01 3.50e+03  -6.0 1.79e+02    -  7.37e-03 3.42e-02h  1
  62 -4.6134133e+00 1.99e+01 3.64e+03  -6.0 1.73e+02    -  1.01e-02 4.37e-02h  1
  63 -4.5849502e+00 1.88e+01 3.37e+03  -6.0 1.66e+02    -  1.45e-02 5.44e-02h  1
  64 -4.5568877e+00 1.77e+01 4.91e+03  -6.0 1.57e+02    -  2.07e-02 5.92e-02h  1
  65 -4.5365332e+00 1.68e+01 6.06e+03  -6.0 1.47e+02    -  2.56e-02 4.80e-02h  1
  66 -4.5235503e+00 1.63e+01 6.60e+03  -6.0 1.39e+02    -  2.18e-02 3.37e-02h  1
  67 -4.5130359e+00 1.58e+01 7.44e+03  -6.0 1.34e+02    -  1.28e-02 2.90e-02h  1
  68 -4.4997883e+00 1.52e+01 9.04e+03  -6.0 1.29e+02    -  9.00e-03 3.85e-02h  1
  69 -4.4891700e+00 1.47e+01 1.01e+04  -6.0 1.22e+02    -  1.22e-02 3.29e-02h  1
iter    objective    inf_pr   inf_du lg(mu)  ||d||  lg(rg) alpha_du alpha_pr  ls
  70 -4.4639721e+00 1.35e+01 1.22e+04  -6.0 1.16e+02    -  3.73e-02 8.16e-02h  1
  71 -4.4560093e+00 1.31e+01 1.28e+04  -6.0 1.01e+02    -  1.42e-02 2.82e-02h  1
  72 -4.4317025e+00 1.19e+01 1.69e+04  -6.0 9.67e+01    -  1.44e-02 9.12e-02h  1
  73 -4.3243022e+00 5.91e+00 4.23e+04  -6.0 8.36e+01    -  2.64e-02 5.04e-01h  1
  74 -4.3470510e+00 4.61e+00 4.66e+04  -6.0 1.34e+01    -  2.35e-02 2.21e-01h  1
  75 -4.4173127e+00 2.96e+00 4.83e+04  -6.0 1.27e+01    -  2.59e-02 3.57e-01h  1
  76 -4.4598635e+00 2.81e+00 4.62e+04  -6.0 3.49e+01    -  1.99e-02 5.02e-02h  1
  77 -4.4778739e+00 2.75e+00 4.56e+04  -6.0 3.61e+01    -  7.25e-02 2.39e-02h  1
  78 -4.4880246e+00 2.71e+00 4.56e+04  -6.0 3.65e+01    -  9.25e-02 1.44e-02h  1
  79 -4.6607617e+00 2.08e+00 7.08e+04  -6.0 3.75e+01    -  1.96e-01 2.34e-01h  1
iter    objective    inf_pr   inf_du lg(mu)  ||d||  lg(rg) alpha_du alpha_pr  ls
  80 -5.0615338e+00 8.58e-01 1.38e+05  -6.0 4.28e+01    -  2.40e-01 9.06e-01f  1
  81 -5.1834849e+00 4.44e-01 9.47e+04  -6.0 6.88e+01    -  1.55e-01 4.15e-01h  1
  82 -5.1995465e+00 4.15e-01 8.87e+04  -6.0 6.71e+01    -  2.52e-02 6.37e-02h  1
  83 -5.2016910e+00 4.12e-01 8.79e+04  -6.0 6.71e+01    -  6.49e-02 8.56e-03h  1
  84 -5.2375185e+00 2.54e-01 5.36e+04  -6.0 5.88e+00    -  5.60e-02 3.86e-01f  1
  85 -5.2545353e+00 2.01e-01 4.20e+04  -6.0 1.24e+01    -  9.99e-02 2.16e-01f  1
  86 -5.2670637e+00 1.70e-01 3.53e+04  -6.0 4.56e+00    -  5.30e-01 1.60e-01h  1
  87 -5.2721884e+00 1.08e-01 2.24e+04  -6.0 1.55e+01    -  2.93e-01 3.62e-01h  1
  88 -5.2855973e+00 1.37e-02 6.75e+02  -6.0 2.07e+01    -  7.05e-01 1.00e+00h  1
  89 -5.3103686e+00 5.66e-02 1.24e+03  -6.0 5.39e+01    -  7.82e-01 8.50e-01h  1
iter    objective    inf_pr   inf_du lg(mu)  ||d||  lg(rg) alpha_du alpha_pr  ls
  90 -5.3765070e+00 2.77e-01 3.66e+03  -6.0 1.22e+02    -  7.45e-01 1.00e+00h  1
  91 -5.4050930e+00 3.33e-01 1.07e+03  -6.0 2.33e+02    -  6.88e-01 4.20e-01h  1
  92 -5.4250095e+00 4.04e-01 8.76e+02  -6.0 2.01e+02    -  5.48e-01 6.13e-01h  1
  93 -5.4353020e+00 3.18e-01 2.17e+03  -6.0 2.53e+02    -  4.74e-01 3.07e-01h  1
  94 -5.4517290e+00 3.88e+00 1.04e+04  -6.0 4.78e+02    -  3.65e-01 1.00e+00h  1
  95 -5.4569863e+00 5.04e+00 5.41e+03  -6.0 1.20e+03    -  3.47e-01 3.19e-01h  1
  96 -5.4599708e+00 2.76e+00 1.63e+06  -6.0 4.89e+01  -4.0 1.15e-02 4.53e-01h  1
  97 -5.4651422e+00 8.84e+00 1.13e+06  -6.0 2.08e+03    -  4.50e-01 3.14e-01h  1
  98 -5.4664170e+00 8.08e+00 1.02e+06  -6.0 8.13e+02    -  6.90e-02 9.69e-02h  1
  99 -5.4677392e+00 7.99e+00 9.68e+05  -6.0 3.24e+03    -  3.54e-01 2.97e-02h  1
iter    objective    inf_pr   inf_du lg(mu)  ||d||  lg(rg) alpha_du alpha_pr  ls
 100 -5.4779612e+00 1.21e+01 4.94e+05  -6.0 1.47e+03    -  4.44e-01 4.90e-01h  1
 101r-5.4779612e+00 1.21e+01 1.00e+03   0.9 0.00e+00    -  0.00e+00 2.94e-07R  2
 102r-5.4867841e+00 1.21e+01 1.00e+03   0.9 4.00e+04    -  3.41e-07 1.34e-07f  1
 103 -5.4857405e+00 1.07e+01 9.97e+04  -6.0 1.22e+00    -  1.14e-06 1.14e-01h  1
 104 -5.4842780e+00 8.81e+00 8.18e+04  -6.0 1.08e+00    -  1.68e-01 1.79e-01h  1
 105 -5.4818988e+00 5.65e+00 5.25e+04  -6.0 8.69e-01    -  4.47e-01 3.58e-01h  1
 106 -5.4778360e+00 5.55e-04 1.76e+01  -6.0 5.53e-01    -  8.95e-01 1.00e+00h  1
 107 -5.4802834e+00 2.81e-03 3.62e+00  -6.0 4.16e+00    -  9.61e-01 1.00e+00h  1
 108 -5.4898133e+00 1.11e-01 6.91e+01  -6.0 9.10e+01    -  5.86e-01 5.74e-01h  1
 109 -5.4980377e+00 1.39e-01 1.42e+02  -6.0 1.03e+02    -  9.27e-01 4.12e-01h  1
iter    objective    inf_pr   inf_du lg(mu)  ||d||  lg(rg) alpha_du alpha_pr  ls
 110 -5.5022028e+00 1.39e-01 2.58e+05  -6.0 2.66e+02    -  8.67e-01 1.92e-01h  1
 111 -5.5035816e+00 1.36e-01 7.64e+04  -6.0 5.43e+02    -  6.11e-01 4.10e-02h  1
 112 -5.5208641e+00 1.58e+01 1.60e+06  -6.0 1.29e+03    -  7.49e-02 8.89e-01h  1
 113 -5.5214113e+00 1.50e+01 1.51e+06  -6.0 1.47e+03    -  1.20e-01 6.16e-02h  1
 114 -5.5289581e+00 3.16e+01 2.82e+05  -6.0 1.68e+03    -  4.46e-02 8.20e-01h  1
 115 -5.5292279e+00 3.10e+01 2.77e+05  -6.0 2.65e+03    -  1.90e-01 1.82e-02h  1
 116 -5.5296961e+00 2.99e+01 2.68e+05  -6.0 4.15e+03    -  4.13e-04 3.49e-02h  1
 117 -5.5304089e+00 2.82e+01 2.52e+05  -6.0 3.78e+03    -  3.98e-01 5.73e-02h  1
 118 -5.5325756e+00 8.23e+01 2.29e+05  -6.0 2.33e+04    -  9.73e-02 9.33e-02h  1
 119 -5.5442735e+00 4.42e+01 2.38e+03  -6.0 1.42e+03    -  7.86e-01 1.00e+00h  1
iter    objective    inf_pr   inf_du lg(mu)  ||d||  lg(rg) alpha_du alpha_pr  ls
 120 -5.5449919e+00 4.01e+01 1.50e+05  -6.0 6.75e+01  -4.5 1.92e-03 9.12e-02h  1
 121 -5.5518287e+00 1.08e-01 1.72e+04  -6.0 5.05e+01  -5.0 2.52e-02 1.00e+00h  1
 122 -5.5544652e+00 1.92e-03 4.85e+01  -6.0 3.87e+00  -5.4 8.79e-01 1.00e+00h  1
 123 -5.5554705e+00 7.70e-03 3.25e-01  -6.0 1.34e+01  -5.9 1.00e+00 1.00e+00h  1
 124 -5.5579150e+00 4.27e-02 1.55e+00  -6.0 3.16e+01  -6.4 1.00e+00 1.00e+00h  1
 125 -5.5629989e+00 3.40e-01 3.34e+00  -6.0 1.08e+02  -6.9 1.00e+00 1.00e+00h  1
 126 -5.5707281e+00 1.29e+00 5.81e+00  -6.0 8.62e+02  -7.3 2.51e-01 2.18e-01h  1
 127 -5.5724476e+00 9.65e-02 1.11e+02  -6.0 4.79e+01  -7.8 1.00e+00 1.00e+00h  1
 128 -5.5830304e+00 1.27e+00 2.58e+03  -6.0 1.93e+03  -7.4 1.12e-01 1.08e-01h  1
 129 -5.5986943e+00 1.23e+00 2.67e+03  -6.0 2.09e+02  -7.9 1.00e+00 1.00e+00h  1
iter    objective    inf_pr   inf_du lg(mu)  ||d||  lg(rg) alpha_du alpha_pr  ls
 130 -5.6061971e+00 1.05e+00 2.45e+04  -6.0 2.75e+02  -8.3 3.25e-01 3.45e-01h  1
 131 -5.6106234e+00 9.91e-01 1.43e+06  -6.0 4.28e+02  -8.8 7.31e-01 1.42e-01h  1
 132r-5.6106234e+00 9.91e-01 1.00e+03  -0.0 0.00e+00  -9.3 0.00e+00 8.31e-08R  2
 133r-5.6222042e+00 9.89e-01 1.00e+03  -0.0 9.08e+03    -  5.91e-06 1.59e-06f  1
 134 -5.6218161e+00 9.61e-01 2.18e+04  -6.0 7.84e+00    -  1.34e-06 2.92e-02h  1
 135 -5.6204682e+00 8.61e-01 1.96e+04  -6.0 7.65e+00    -  4.89e-02 1.03e-01h  1
 136 -5.6191558e+00 7.64e-01 1.74e+04  -6.0 6.89e+00    -  2.87e-01 1.13e-01h  1
 137 -5.6155518e+00 4.99e-01 1.13e+04  -6.0 6.13e+00    -  4.56e-01 3.48e-01h  1
 138 -5.6088053e+00 5.42e-04 3.19e+01  -6.0 3.94e+00    -  7.75e-01 1.00e+00h  1
 139 -5.6088538e+00 2.26e-04 2.12e+01  -6.0 9.48e-01    -  9.93e-01 5.98e-01h  1
iter    objective    inf_pr   inf_du lg(mu)  ||d||  lg(rg) alpha_du alpha_pr  ls
 140 -5.6099157e+00 8.86e-03 7.76e+00  -6.0 2.56e+01  -6.2 9.84e-01 6.47e-01f  1
 141 -5.6138226e+00 1.39e-01 4.55e+00  -6.0 6.57e+01  -6.6 9.91e-01 1.00e+00f  1
 142 -5.6171436e+00 2.47e-01 1.67e+00  -6.0 8.79e+01  -7.1 9.96e-01 1.00e+00h  1
 143 -5.6172266e+00 1.18e-01 2.04e+00  -6.0 6.03e+01  -7.6 1.00e+00 8.94e-01h  1
 144 -5.6168389e+00 8.05e-02 3.97e-01  -6.0 7.54e+01  -8.1 1.00e+00 1.00e+00h  1
 145 -5.6171250e+00 3.69e-03 1.58e+00  -6.0 2.27e+02  -8.5 1.00e+00 1.00e+00H  1
 146 -5.6177241e+00 9.36e-01 1.35e+01  -6.0 6.89e+02  -9.0 9.68e-02 9.07e-01H  1
 147 -5.6177805e+00 9.75e-01 7.57e+00  -6.0 2.76e+03  -9.5 8.87e-02 2.33e-02h  5
 148 -5.6178008e+00 9.84e-01 2.22e+01  -6.0 1.20e+05    -  9.52e-03 2.09e-04h  6
 149 -5.6178088e+00 9.83e-01 4.09e+01  -6.0 4.00e+03    -  5.36e-01 2.14e-03h  9
iter    objective    inf_pr   inf_du lg(mu)  ||d||  lg(rg) alpha_du alpha_pr  ls
 150 -5.6178065e+00 9.83e-01 4.15e+01  -6.0 8.14e+03 -10.0 9.87e-03 1.07e-03h  8
 151 -5.6178817e+00 9.94e-01 9.14e+01  -6.0 2.52e+03    -  1.00e+00 3.55e-02h  1
 152 -5.6191285e+00 3.55e+01 9.36e+01  -6.0 6.16e+04    -  1.51e-03 2.49e-02h  1
 153 -5.6203568e+00 5.64e+01 5.13e+01  -6.0 4.13e+03    -  2.57e-01 3.50e-01h  1
 154 -5.6203239e+00 3.71e+01 2.02e+02  -6.0 1.64e+03    -  2.25e-01 3.44e-01h  1
 155 -5.6203441e+00 3.58e+01 1.93e+02  -6.0 4.04e+03    -  2.57e-04 3.11e-02H  1
 156 -5.6204185e+00 5.59e+01 3.82e+02  -6.0 8.04e+03    -  3.16e-04 2.42e-01H  1
 157 -5.6206918e+00 7.51e+01 5.86e+03  -6.0 4.37e+03    -  1.21e-01 3.46e-01h  1
 158 -5.6211033e+00 1.72e+01 1.20e+04  -6.0 9.68e+02    -  7.15e-03 1.00e+00h  1
 159 -5.6205673e+00 2.32e+00 1.14e+03  -6.0 3.70e+02    -  6.46e-01 1.00e+00h  1
iter    objective    inf_pr   inf_du lg(mu)  ||d||  lg(rg) alpha_du alpha_pr  ls
 160 -5.6205088e+00 1.72e-01 1.74e-01  -6.0 2.60e+01  -8.7 1.00e+00 1.00e+00h  1
 161 -5.6205127e+00 4.24e-01 4.59e-02  -6.0 8.06e+01  -9.1 1.00e+00 1.00e+00h  1
 162 -5.6205138e+00 4.20e-01 1.76e+01  -6.0 7.49e+02    -  1.00e+00 6.79e-02h  2
 163 -5.6205203e+00 6.87e-01 5.72e+00  -6.0 3.65e+02    -  1.00e+00 5.00e-01h  2
 164 -5.6205150e+00 1.64e+00 1.84e+00  -6.0 3.02e+02  -9.6 2.61e-01 1.00e+00h  1
 165 -5.6205205e+00 1.46e+00 1.89e+00  -6.0 8.08e+02    -  7.45e-02 1.25e-01h  4
 166 -5.6204929e+00 4.46e-01 9.17e+01  -6.0 2.76e+02    -  1.00e+00 1.00e+00H  1
 167 -5.6205061e+00 6.60e-01 4.59e+01  -6.0 3.23e+02    -  1.00e+00 5.00e-01h  2
 168 -5.6205022e+00 5.73e-01 2.84e+01  -6.0 8.71e+01    -  1.00e+00 3.81e-01h  2
 169 -5.6204985e+00 5.18e-01 2.21e+01  -6.0 1.86e+02    -  1.00e+00 2.23e-01h  2
iter    objective    inf_pr   inf_du lg(mu)  ||d||  lg(rg) alpha_du alpha_pr  ls
 170 -5.6204880e+00 4.09e-01 1.18e+01  -6.0 2.28e+02    -  1.00e+00 4.67e-01h  2
 171 -5.6204818e+00 4.15e-01 1.18e+01  -6.0 4.45e+02    -  1.00e+00 1.25e-01h  4
 172 -5.6204779e+00 4.09e-01 1.65e+01  -6.0 5.11e+02    -  1.00e+00 6.25e-02h  5
 173 -5.6204739e+00 4.01e-01 1.71e+01  -6.0 5.03e+02    -  8.64e-01 6.25e-02h  5
 174 -5.6204768e+00 4.10e-01 9.02e+00  -6.0 7.24e+03    -  7.25e-02 3.09e-03h  7
 175 -5.6204981e+00 7.87e-01 1.04e+01  -6.0 6.41e+02 -10.1 7.54e-01 2.50e-01h  3
 176 -5.6204961e+00 5.46e-03 3.14e-03  -6.0 1.63e+01  -8.8 1.00e+00 1.00e+00h  1
 177 -5.6205044e+00 8.21e-01 7.35e-02  -6.0 1.27e+02    -  9.59e-01 1.00e+00h  1
 178 -5.6205101e+00 9.01e-01 9.89e-02  -6.0 1.10e+02    -  1.00e+00 1.00e+00h  1
 179 -5.6205051e+00 3.94e-01 6.42e-02  -6.0 8.88e+01    -  1.00e+00 1.00e+00h  1
iter    objective    inf_pr   inf_du lg(mu)  ||d||  lg(rg) alpha_du alpha_pr  ls
 180 -5.6205037e+00 6.05e-03 4.57e-04  -6.0 7.34e+00    -  1.00e+00 1.00e+00h  1
 181 -5.6205035e+00 1.49e-03 1.24e-04  -6.0 3.89e+00    -  1.00e+00 1.00e+00h  1
 182 -5.6205035e+00 3.67e-06 3.72e-07  -6.0 2.14e-01    -  1.00e+00 1.00e+00h  1
 183 -5.6206600e+00 3.82e+00 8.07e+01  -7.5 8.39e+02    -  2.79e-01 5.57e-01h  1
 184 -5.6207132e+00 2.23e+00 6.99e+01  -7.5 3.52e+02    -  5.52e-01 8.15e-01h  1
 185 -5.6206928e+00 3.61e-01 1.27e+01  -7.5 1.32e+02    -  8.65e-01 1.00e+00h  1
 186 -5.6206911e+00 6.57e-03 2.83e-03  -7.5 1.76e+01    -  1.00e+00 1.00e+00h  1
 187 -5.6206911e+00 4.59e-06 8.18e-07  -7.5 4.68e-01    -  1.00e+00 1.00e+00h  1
 188 -5.6206911e+00 2.92e-10 2.65e-12  -7.5 7.99e-05    -  1.00e+00 1.00e+00h  1
 189 -5.6206928e+00 1.65e-02 8.32e-01  -9.0 3.41e+01    -  9.25e-01 8.34e-01h  1
iter    objective    inf_pr   inf_du lg(mu)  ||d||  lg(rg) alpha_du alpha_pr  ls
 190 -5.6206930e+00 7.76e-04 3.84e-04  -9.0 6.15e+00    -  1.00e+00 1.00e+00h  1
 191 -5.6206930e+00 2.54e-09 4.51e-09  -9.0 1.21e-02    -  1.00e+00 1.00e+00h  1

Number of Iterations....: 191

                                   (scaled)                 (unscaled)
Objective...............:  -4.3911664229293379e+00   -5.6206930213495525e+00
Dual infeasibility......:   4.5058771725400535e-09    5.7675227808512685e-09
Constraint violation....:   2.0868426898113950e-09    2.5393092073500156e-09
Complementarity.........:   1.0766908093644614e-09    1.3781642359865106e-09
Overall NLP error.......:   4.5058771725400535e-09    5.7675227808512685e-09


Number of objective function evaluations             = 430
Number of objective gradient evaluations             = 191
Number of equality constraint evaluations            = 430
Number of inequality constraint evaluations          = 430
Number of equality constraint Jacobian evaluations   = 197
Number of inequality constraint Jacobian evaluations = 197
Number of Lagrangian Hessian evaluations             = 191
Total CPU secs in IPOPT (w/o function evaluations)   =    401.645
Total CPU secs in NLP function evaluations           =      9.056

EXIT: Optimal Solution Found.
